16
63
54
91
43
71
4
93
44
60
53
3
83
40
6
59
85
18
25
20
9
10
26
87
55
92
48
2
19
37
51
100
30
35
62
5
64
77
39
73
15
84
41
24
27
88
79
13
1
50
34
81
38
66
61
74
7
75
67
36
29
58
22
89
11
90
17
94
32
97
98
49
70
42
23
8
52
46
69
80
76
72
57
31
78
99
45
33
68
14
82
47
21
95
56
28
12
65
86
96
16
